# this file sets up an alanine dipeptide simulation using LAMMPS command syntax

# forceField parameters
units      real
atom_style     full

# define specific interation styles
pair_style     lj/charmm/coul/long 8.0 10.0 10.0
bond_style      harmonic
angle_style     charmm 
dihedral_style  charmm 
improper_style  harmonic
kspace_style    none

# read in the molecular data for the specified file
read_data  data.diala

# simulationParameters 
neighbor 2.0 bin
neigh_modify  delay 5

# timestep information
timestep  1.0
thermo_style  multi
thermo 1000
