# forceField parameters
units      real
atom_style     full

# define specific interation styles
pair_style     lj/charmm/coul/long 8.0 10.0 10.0
bond_style      harmonic
angle_style     charmm
dihedral_style  charmm
improper_style  harmonic
kspace_style    pppm 0.0001


